proyfinal/src/viki/013/andrea/andrea-localstore/experimentInOfficeAgust.take6/worker_1/2bd410e9-100f-497e-8ed3-dbb6e90368de.als.cnf.out
Reading from standard input... Use '--help' for help.
============================[ Problem Statistics ]=============================
|                                                                             |
|  Number of variables:         87638                                         |
|  Number of clauses:          161767                                         |
|  Parse time:                   0.04 s                                       |
|                                                                             |
============================[ Search Statistics ]==============================
| Conflicts |          ORIGINAL         |          LEARNT          | Progress |
|           |    Vars  Clauses Literals |    Limit  Clauses Lit/Cl |          |
===============================================================================
|       100 |   62262   104804   261848 |    38428      100      8 | 28.955 % |
|       250 |   62260   104757   261752 |    42270      247     24 | 28.958 % |
|       475 |   62260   104757   261752 |    46498      472     38 | 28.958 % |
|       812 |   62260   104757   261752 |    51147      809     70 | 28.958 % |
|      1318 |   62224   104613   261413 |    56262     1312     75 | 28.999 % |
|      2077 |   48152    64818   163429 |    61888     1391     62 | 45.056 % |
|      3216 |   48101    64723   163199 |    68077     2526     63 | 45.114 % |
|      4924 |   47721    63214   159660 |    74885     4219     54 | 45.548 % |
|      7486 |   47100    60903   154104 |    82374     6615     50 | 46.256 % |
===============================================================================
restarts              : 42
conflicts             : 9697           (8180 /sec)
decisions             : 32011          (0.00 % random) (27003 /sec)
propagations          : 14195016       (11974440 /sec)
conflict literals     : 467772         (45.26 % deleted)
Memory used           : 27.70 MB
CPU time              : 1.18544 s

UNSATISFIABLE
